0 53412 
1 52940 
2 51396 
3 51228 
4 51008 
5 50352 
6 48272 
7 47492 
8 47250 
9 47128 
10 47090 
11 45102 
12 43366 
13 41488 
14 39344 
15 36986 
16 36946 
17 36376 
18 36042 
19 35670 
20 35642 
21 35352 
22 35192 
23 34222 
24 30828 
25 30036 
26 29392 
27 29372 
28 28660 
29 27736 
30 26212 
31 25832 
32 24444 
33 24090 
34 23866 
35 23650 
36 23618 
37 23178 
38 22860 
39 22188 
40 21908 
41 21492 
42 19602 
43 19424 
44 19200 
45 18252 
46 17454 
47 17448 
48 17304 
49 17010 
50 16006 
51 15966 
52 15606 
53 15506 
54 15034 
55 15018 
56 13784 
57 13416 
58 13356 
59 13356 

